Mg71 Si71 O213 He5 
1.0
1.8041978398258010e+01 0.0000000000000000e+00 0.0000000000000000e+00 
0.0000000000000000e+00 1.8041978398258010e+01 0.0000000000000000e+00 
0.0000000000000000e+00 0.0000000000000000e+00 1.7101889588067863e+01 
Mg Si O He 
71 71 213 5 
Cartesian
   3.5452291991    3.3501791991    1.6019697940
   5.8632791991   17.7957891991    5.9592947940
   2.7565421991    2.0668919991    5.2723347940
  17.6910891991    4.9489991991    2.2410287940
   3.5530591991    1.7740221991   11.5311447940
   6.7524091991   17.8522891991   11.4733547940
   5.3347791991    4.4469991991   15.3543447940
  15.2817891991    7.5879491991   11.9285447940
   1.6179401991   10.7544291991    2.7590037940
   4.2329691991    5.2777091991    6.0885947940
   0.3871191991    8.4824491991    4.3365447940
  15.3203891991   16.6116891991    1.7036077940
  17.4890891991    6.4314391991    9.0615147940
   3.3279591991    8.5481991991   16.2833447940
   3.7952791991   11.1636291991   15.7433447940
   1.1397011991   13.6626891991   10.6705447940
   2.5575091991   16.8502891991    0.6146747940
   7.4752091991   12.0714891991    8.7950247940
   3.8946691991   12.2013891991    4.6940447940
   0.9519991991   17.3806891991    4.2803747940
   4.0656991991   14.9601891991    7.3429147940
   5.2337391991   11.0803291991   11.0421747940
   4.1789491991   13.7767891991   13.7426447940
   3.2696591991   16.3226891991   12.2460447940
   9.7928891991    1.8791861991   17.0611447940
  14.9916891991    3.7374591991    6.7414847940
  10.1817791991    3.7022591991    6.0923647940
   5.5413291991    3.2273891991    3.3741247940
  11.4623991991    0.7459291991   11.1179947940
  13.5977891991   14.3956891991   11.9201447940
   7.5450691991    3.4679991991   11.3984347940
   4.4608091991    5.4119191991   10.9969647940
   9.7176291991    9.5243591991    3.3573347940
  11.9637291991    6.4903691991    9.0196647940
   7.5546691991    6.3763591991    6.8191447940
   5.6368591991   11.3831291991    1.1617667940
   7.2347391991    8.7375191991    9.1642847940
  14.4959891991    5.5682191991   14.1095447940
   6.0121491991    9.7460691991   14.2867447940
   3.6584591991   10.7954391991    7.8086647940
  11.5111291991   14.4368891991    3.4398147940
  13.0270891991   10.9679491991    7.5721047940
   5.7979891991   12.1192891991    6.2109647940
   6.6379391991   18.0253891991   16.0341447940
   7.2808091991   15.4927891991   13.6970447940
  10.0766791991   11.8666991991    1.0745557940
   9.8244191991   14.3905891991   17.0229447940
   8.0940491991    1.0105091991    8.5924247940
  14.5472891991    6.0181091991    2.1680457940
   2.5544181991   15.1280891991    4.2519347940
  11.8175791991    6.4011691991    5.6431747940
   9.9803791991    5.2605291991    1.5153267940
  16.9961891991    0.8570691991   11.6645647940
  16.1842891991    1.4410171991   16.3204447940
   1.0816351991   17.9058891991   14.3898447940
  14.3231891991    3.9100291991   10.7988647940
  13.3206891991    8.3694191991   16.7905447940
  17.8567891991    4.8955691991    6.5388847940
  14.2946891991    6.5499491991    7.7958747940
  13.9925891991   12.5523891991    2.6303397940
  17.2469891991   11.5557491991    9.3420047940
   3.0408291991    9.1336791991   13.1245447940
  14.9905891991   10.9350791991   14.6729447940
  11.4699891991   12.0560891991   10.7696347940
  12.5755891991   17.1366891991    5.5707647940
  15.4878891991   14.1059891991    4.3738447940
  15.1170891991   10.6111591991    5.5494247940
   7.7055991991    1.2773221991    2.1610657940
  14.3122891991   14.0334891991    9.2584747940
  15.9516891991   14.2615891991    0.4597447940
  15.4284891991   17.2591891991   10.8146347940
  17.2778891991    5.8894891991   17.0379447940
   4.6852391991    1.6445021991   16.3026447940
  15.7266891991    2.9723081991    3.4570847940
   2.9070681991    0.5194991991    3.1555447940
   1.5672911991    1.2905521991    8.5845947940
   4.4031391991   17.7779891991    8.7250247940
   0.8828691991    1.5060101991   12.1444447940
   4.0113891991   17.2871891991   14.5761447940
   0.6209191991   10.0131791991   16.4221447940
   6.3474991991    5.3282891991    0.8115947940
  14.7448891991    7.2075291991    4.6594847940
   2.2591491991    4.7738191991    3.7705547940
  16.8044891991    8.5094291991    7.3577047940
   2.1472461991    4.6816391991    8.3436647940
   0.8621491991    7.0564191991   11.2967047940
   2.3734991991    4.6390591991   12.5278447940
  17.5028891991   16.2089891991   15.9049447940
   3.3929291991   12.5026891991    0.6027947940
  16.0244891991   16.8656891991    5.6060247940
   3.9987391991    9.7349891991    3.4107447940
   0.6456591991   14.7918891991    6.7192247940
   1.1615931991   11.3887691991    5.1420147940
   0.3073091991   14.6388891991   13.7069447940
   1.7516981991   10.4599191991    9.8680447940
   9.0811291991    4.6197991991   15.6424447940
  10.1358391991   17.6931891991   16.0240447940
   5.5095691991    0.0816691991    1.5911437940
   8.2646291991    2.0052800991    5.3500747940
   5.7221191991    2.0174203191    6.7704947940
  10.4953191991   17.1367891991    8.0314347940
   5.7409791991    2.5270761991   13.4752447940
  11.2757591991    1.5294771991   13.7565447940
   6.3933191991    8.2235991991    1.1692807940
   7.8183391991    8.7373191991   15.2498447940
   6.6757391991    8.3817591991    4.1260247940
   8.6484391991    6.5027391991    4.2658347940
   4.8655791991    7.9538091991    7.6944247940
   9.1219991991    4.2408591991    9.3146147940
   6.6982691991    6.9634591991   12.7748447940
  11.1020991991    3.9308891991   11.7866347940
   8.3572291991   16.7081891991    1.6472657940
   8.7751391991   14.0514891991    3.0697447940
   5.9477191991   13.8984891991    3.5801647940
   8.2319691991    9.9337291991    6.7215647940
   7.2705391991   15.1048891991    8.6866747940
  10.0379891991   14.9912891991   10.5135247940
   6.2269391991   14.5312891991   11.2526247940
   7.9619891991   12.1117891991   11.7904947940
  12.7884891991    3.5687391991   17.0899447940
  13.5401891991    0.7511591991    1.7033387940
   9.3485591991    3.3821791991    3.1404647940
  12.6831891991    2.6214181991    4.4840747940
  12.0747891991    3.5301491991    8.8298647940
  16.5244891991    0.8889891991    7.9931847940
  13.7417891991    2.9284491991   14.0652447940
  15.5333891991   16.4840891991   13.9612447940
  10.1464591991    8.4045791991    0.1392947940
  16.4313891991    8.1550691991   15.0159447940
  10.5397591991   10.2538691991    6.2436447940
  12.9089891991    8.9897491991    2.7801917940
  12.5189891991    8.9504491991   10.6895547940
  16.5699891991    3.8141291991   12.3959447940
  11.8504791991    6.7356291991   12.1605447940
   0.3215991991    3.6594391991   14.1433447940
  12.7734891991   16.4572891991    0.2084247940
  12.8804891991   12.1028891991   16.9888447940
  13.0849891991   13.9802891991    5.6652247940
  16.1607891991   10.5048291991    2.3807537940
  12.6172891991   15.6543891991    8.5695647940
  15.6502891991   12.5455891991    7.4018847940
  15.8684891991   11.8655891991   11.7326147940
  16.6216891991    6.4210391991    1.1260087940
   0.6046391991    5.0761791991    8.4776447940
   5.7465191991    3.6714291991    6.1117147940
   1.5669791991    0.2513491991    2.3154287940
   3.6675591991    2.1089943991    3.1594547940
  16.2180891991    2.8652411991    4.9060847940
   5.5997391991    6.0666491991   16.6636447940
   4.1711991991   17.0709891991   10.1400847940
   1.6119591991    3.6039291991    4.7080247940
   4.2622791991   17.6353891991    2.3508757940
   2.9471661991    0.5892191991    8.1199647940
   5.8242691991    4.4405591991    1.8839452940
   1.4053161991    1.5833611991   10.5237947940
   4.1879291991    9.4359791991   14.8054447940
   6.7981991991    3.4682491991   13.0905447940
   3.0772991991   17.5475891991   13.2070447940
   0.1428391991    0.1137791991   12.4970447940
   2.5387941991    3.2992491991   11.8355747940
   2.4719091991    5.3812891991    6.8102847940
   6.3102591991    2.1207661991   15.3551447940
   3.5525491991    5.5015791991   13.2030447940
   4.3902691991    3.4329191991   13.9436447940
   3.8424791991    2.5612531991   17.0601447940
   1.6751451991    2.9102051991    8.5281647940
  15.5642891991    6.7322791991    3.4192047940
   3.1267791991   10.4315991991    4.7390547940
   5.4724291991    9.2429791991    4.1227347940
   6.0959991991    6.8220591991    1.8702204940
   1.5396721991    4.8408991991    2.2503197940
   2.4476661991    8.7907991991    3.1342447940
   5.2548191991   11.8531891991   16.5104447940
   4.5884091991    6.9338691991    6.2942047940
   4.2513791991   10.9783491991    2.6261417940
   3.7956791991    4.4846991991    3.5852347940
  17.5021891991    7.5203791991    6.2869147940
  17.8388891991    8.9344691991    0.0079047940
  17.1481891991    6.7311091991   11.3340047940
   2.7314641991   12.8287891991   16.1847447940
   7.2087091991    7.2116491991   14.1600447940
   3.9168591991    4.8722091991    9.0809547940
   1.2730851991    8.3873291991   12.0975447940
   0.9785391991    7.5750191991    9.7570047940
   2.3359501991    9.8434891991    8.4979747940
   4.9143591991    8.5769791991    0.7823547940
   3.1094091991   10.5984891991   10.7251947940
   1.9500491991    5.7258691991   11.3788247940
   1.9556715991    6.2864991991    4.5391647940
   0.6763491991    9.9315291991    5.3433647940
  17.0181891991   15.8052891991    0.2115847940
   3.0033861991   17.6941891991    4.7077847940
   7.5021591991   14.0938891991    7.2491247940
   4.6638391991   13.0621891991    1.5461157940
  16.1425891991   14.7403891991    2.3895347940
   1.9808139991   12.4925891991    4.1367947940
   5.0559391991    0.3272591991    0.2087447940
   4.2875691991   13.2597891991    6.7047547940
   7.0086591991   17.4743891991    1.2408857940
   5.7220291991   12.6533891991    4.6064347940
   1.0581121991   13.4417891991    6.2121547940
   1.2780911991   17.0665891991   16.1703447940
   1.9021971991   15.3546891991    7.8566247940
   3.6687991991    0.9525591991   15.0425447940
   9.7111991991   14.9541891991    2.4081737940
   1.1882961991   11.9220291991    9.5923247940
   1.2716861991   14.5539891991   12.3351447940
   3.9648991991   15.7856891991   13.9073447940
   4.4566791991   16.8621891991    7.3877847940
   5.8644691991   17.9952891991   14.5215447940
   4.5170991991   13.6897891991   11.8684547940
  17.5212891991   14.3534891991   15.6769447940
   1.3828121991   16.0412891991    5.4886647940
   8.1252391991    5.1870591991    0.6029347940
   8.8698591991    5.8759091991    8.4479647940
  11.9928891991    4.5903791991   10.3023047940
   9.0345691991    1.3939261991    3.9911647940
   6.7625491991    1.1955771991    5.0754747940
   5.9872191991    1.5124421991    1.9854710940
   9.6238291991    6.0965091991   14.9332447940
  12.5016891991    4.1320291991    7.5461947940
   9.2141591991    5.7277291991    5.7244947940
   8.5832391991    3.2412091991    4.7533747940
   4.5274291991    1.2587081991    6.1309147940
   8.6443291991    3.4954591991   16.3426447940
   6.1744791991    0.6755491991    8.0230447940
   7.6504391991    9.8089391991   14.1364447940
  10.9603991991    3.6853991991   16.7552447940
  11.2029791991    0.1761791991   12.8707447940
   5.9302491991    1.7818681991   12.0042447940
  10.2900191991    2.6372501991   13.0382447940
  10.5778791991    3.6672791991    8.9110647940
   9.0837591991   17.7631891991    0.4402547940
  13.0802891991    3.6840891991   12.4747447940
  12.1518891991    2.3751671991   14.6843447940
   8.6758191991   17.2567891991    2.9894147940
   7.9559091991    3.0395291991    9.2752447940
   7.4930091991    8.9282491991    2.7230817940
  11.0443791991   13.9021891991   10.8531847940
  11.9838591991   10.7823091991    6.0482747940
   9.6976691991    7.6086991991    4.1478847940
   7.1566491991    6.7806291991    4.4811947940
   7.1399091991    8.8578691991    6.0595947940
   9.1083491991    7.4827491991    1.1169307940
  11.5030791991    7.3021091991   10.7814647940
   9.5366391991   10.8951891991    5.2368047940
   9.5135491991    9.0521591991    6.5627447940
   6.1776991991    7.0980691991    8.2524947940
   8.6749391991   12.2327891991    1.9916057940
   5.1385091991    7.3276391991   12.3039447940
  10.2135091991    9.7420691991    0.7200347940
  11.6272691991    7.7394491991   16.8091447940
   9.6576991991    3.6483091991   11.0256847940
   6.7497691991    5.9682991991   11.4075547940
   6.6519091991   11.4983891991   12.7473447940
  12.1385891991    9.8082991991    9.3813247940
   9.4623291991    8.3567191991   15.6532447940
   9.3983591991   12.0767891991   11.6849047940
  10.6821491991    5.4549891991   12.4512447940
   7.0370791991    8.8530891991   16.6716447940
   5.3388491991    9.2626691991    8.6516347940
   4.6060091991   14.9028891991    3.6367347940
  10.3258691991   17.0101891991    6.2241247940
  13.9992891991   15.0694891991    7.1270947940
   7.3073191991   11.2696791991    6.7695147940
   8.7931691991    9.5368591991    8.5937847940
   7.1984691991   14.1139891991    2.8174767940
  11.8508991991   17.8310891991   16.3143447940
  10.6105191991   15.6967891991    8.9493347940
   8.8546591991    2.0721413991    6.9626247940
  12.0306891991   13.0244891991    6.5633247940
   8.5568791991   14.9009891991    9.8088747940
   9.6115491991   13.4050891991    4.2777447940
   6.0953191991   15.6798891991   10.0227147940
   9.8411991991    1.1845211991   15.3952447940
  11.3065091991   15.7449891991    0.1553247940
   9.6719391991   16.2398891991   11.2910547940
   6.7050291991   11.5886491991   10.0365947940
   6.4281891991   16.0322891991   12.0377447940
  11.9638491991   17.1920891991    7.9386947940
   7.9638591991   16.9210891991   14.7221447940
   7.6783591991   13.9135891991   11.9225447940
   7.5925391991   15.5217891991   16.7470447940
   9.6424591991   17.7131891991    9.0863547940
   8.8543191991    2.9114171991    1.5482567940
  12.5242891991    6.9859191991    7.1033447940
  15.2385891991    6.0556291991    5.9283347940
  14.3322891991    3.6254491991    3.7052047940
  10.8285091991    3.6515491991    3.5267547940
   8.8068091991    5.1924291991    3.2698147940
   0.1376091991    8.7458391991   14.7592447940
   0.1294991991    0.5674491991    7.9365847940
  16.8765891991    3.2585991991    2.3424487940
  14.1095891991    5.3498091991    9.5119747940
  15.6254891991    2.0503225991    7.6206247940
  13.5863891991    4.9560791991    0.6127847940
  12.5111891991    2.2921641991    9.7379447940
  15.9880891991    8.0676491991   13.3584447940
  17.4273891991    4.4277091991   16.5072447940
  16.5822891991    0.4554191991    9.6609947940
  14.8010891991    2.3220821991   13.0912447940
  14.3475891991    3.8992191991   15.2216447940
  15.1604891991    4.8772291991   12.5828447940
  16.3805891991    6.4987291991   15.6534447940
   1.4621121991    1.8887501991   13.8128447940
  16.2677891991   17.1274891991   15.4601447940
  12.2589891991    2.3240911991    1.1668647940
  18.0211891991    3.1019091991   12.4165447940
  13.3110891991    7.8343791991    1.6463357940
  15.8564891991   12.4774891991    5.7005547940
  15.0375891991    8.3205991991    5.7151047940
  13.3448891991    7.0851291991    4.0135747940
  11.6965191991    9.6682991991    3.3531247940
  15.8012891991   11.8794891991    3.2828047940
   2.0191105691   11.9909391991    1.4974737940
  15.8338891991    7.5299291991    8.0049047940
  17.7214891991   10.0419991991    2.9810347940
  14.6598891991    9.9744091991    2.6728737940
  16.1327891991    2.8724761991   11.0969247940
  11.9492591991   10.7800491991   16.2890447940
  11.7019991991    9.1166491991   12.1250447940
  14.4723891991   11.8189991991    0.5762947940
   2.0883240991   10.0734891991   16.3563447940
  16.6787891991    3.7695591991   14.0656447940
  13.2231891991    6.9666891991   13.1149447940
  15.9913891991   10.4494791991   11.1115147940
  16.3057891991   10.0949691991    6.9026247940
  17.8951891991   11.2375391991   15.5567447940
  15.2474891991   12.1261891991   13.1504447940
   1.4420381991    4.6911091991   13.8362447940
  15.6065891991    9.1818691991   15.8645447940
  13.6940891991    7.9786091991   10.0529147940
  13.8604891991   17.4042891991    1.2510077940
  11.9603791991    2.8111081991    5.8677847940
  16.8279891991   15.5730891991    6.2048347940
  11.7885891991   15.4663891991    5.0940347940
  12.5581891991   14.2316891991    9.4625147940
  13.3132891991   13.4585891991    4.1028747940
  13.2234891991    1.2245291991    3.4062047940
  16.6085891991   13.1047891991    8.3239747940
  17.2952891991   17.7541891991    4.9214147940
  14.6109891991   17.3415891991    5.1225647940
  14.6428891991   11.5550291991    8.3550647940
  14.3413891991   16.0012891991   16.7572447940
   9.2812891991   15.8180891991   15.2889447940
  15.2476891991    1.4169441991    0.8117647940
   0.6208291991   16.2387891991   14.3032447940
  17.3810891991   12.6615891991   11.4653647940
  14.8110891991   13.0480891991   11.0091947940
  15.5620891991   17.6350891991   12.6229447940
  15.9990891991   18.0067891991    6.9004747940
  16.6029891991   15.2813891991   13.0467447940
  13.7196891991   15.9254891991   13.8196447940
  11.6531891991   12.9957891991    0.8140347940
  14.1323891991   16.7012891991    9.4150247940
  10.3497991991   16.0168891991    5.8377747940
   8.6851591991    0.3035791991    3.9693247940
  17.8406891991    9.3409391991    0.8897347940
  13.6510891991   16.5155891991   12.7238447940
   9.5210491991   16.2786891991   14.3893447940
