SYSTEM = Pv


Start parameter for this Run:
  NWRITE =  2;  LPETIM=F      write-flag & timer
  ISTART =  0                 job   : 0-new  1-cont  2-samecut
  LWAVE  =  .FALSE.
  LCHARG =  .FALSE.


Cluster dependent:
  NPAR   =  1                GPU VASP: NPAR must be 1 (offloads to GPU, not MPI-parallel bands)
  NBANDS =  768              Usually VASP good at guessing this unless highly dissociated system (may underestimate)


Electronic Relaxation
  ENCUT  =  800.00 EV
  NELM   =  150;
  EDIFF  =  1E-06             stopping-criterion for ELM
  MAXMIX =  50
  LMAXMIX = 2
  METAGGA   = R2SCAN
  LASPH     = .TRUE.


Ionic Relaxation
  NSW    =  0                 number of steps for IOM
  NBLOCK =  1; KBLOCK = 1     inner block; outer block
  ISYM   =  0
  ISIF   =  2

  POTIM  =  1.000             time-step for ion-motion
  TEBEG  =  8000    initial temperature
  SMASS  =  0.00              Nose mass-parameter (am)


DOS related values:
  ISMEAR =  -1
  SIGMA  = 0.689387          broadening in eV -4-tet -1-fermi 0-gaus


Electronic Relaxation 2
  ALGO   =  N
  LREAL  =  A
