Frame 1 extracted from DeePMD dataset
1.0
     14.88805580139160      0.00000000000000      0.00000000000000
      0.00000000000000     14.88805580139160      0.00000000000000
      0.00000000000000      0.00000000000000     14.88805580139160
  Mg  Si  O
  32  32  96
Cartesian
     10.10754966735840      0.66907000541687      8.45845031738281
      2.12358999252319     14.26550006866455      2.39296007156372
     13.54675006866455     10.73744010925293      5.70623016357422
      3.79425001144409      2.32572007179260      1.81945002079010
     13.79257965087891      2.35343003273010      6.37166976928711
      4.07069015502930      6.25570011138916      9.27583980560303
      2.94773006439209      1.15095996856689      8.39834022521973
     11.08547019958496      4.96300983428955     12.38024997711182
      8.70769977569580      6.39425992965698      1.12294995784760
      6.46214008331299     12.49437046051025     10.56210041046143
      9.94915008544922      0.85576999187469      5.83763980865479
      3.44429993629456     14.51953983306885     11.80463027954102
      0.85074001550674      5.00012016296387     13.42012977600098
      2.89371991157532      5.37351989746094      2.48344993591309
     11.78094005584717      2.28927993774414      0.35971999168396
     11.79798984527588     13.73491954803467      7.13128995895386
      4.98239994049072      9.15013027191162     10.73760032653809
     12.92366981506348     12.75000000000000     13.61847019195557
      6.90271997451782      0.10245999693871      7.24656009674072
      3.78748011589050      9.35663032531738      3.44833993911743
     12.49950981140137      7.63004016876221     14.61091041564941
      1.98881995677948     11.46368980407715      6.16228008270264
      4.79407978057861     11.25574970245361      8.58209037780762
      0.04029000177979      7.10970020294189      5.97457981109619
     12.91613960266113      2.68875002861023      3.03723001480103
      6.00234985351562      6.61164999008179      1.86733996868134
     11.31674957275391     14.62991046905518     11.56042957305908
      2.93211007118225      1.75112998485565     13.93037986755371
      9.90299987792969     12.32866001129150     12.71364974975586
      7.35789012908936      6.16501998901367     12.57497024536133
      8.87520980834961      6.20492982864380      7.69954013824463
      6.68873977661133      8.98602008819580      6.27056980133057
      8.16714000701904      2.20650005340576      1.02635002136230
      1.76026999950409      1.86538004875183     10.43978977203369
     13.99322986602783      1.62603998184204     10.33928966522217
      4.61803007125854     14.35591030120850     13.94087982177734
      5.87878990173340      3.60452008247375     12.17683982849121
     10.07837963104248     10.99372959136963     10.49355030059814
      9.22128009796143     11.74190998077393      5.89053010940552
      4.34153985977173     12.36620998382568      5.70888996124268
      7.54223012924194     10.93128967285156     12.65515995025635
      8.54067039489746      9.32742023468018      9.22852039337158
      5.24101018905640     12.42413043975830     14.49475002288818
      0.36561998724937      0.38453999161720      8.31978988647461
      3.47907996177673      7.17443990707397     14.54572010040283
      0.88520002365112     13.38852977752686      5.33325004577637
      3.40211009979248      2.17132997512817      5.28773021697998
     11.58098983764648      6.77329015731812      2.62007999420166
     11.47980022430420      2.94697999954224      8.39221954345703
      6.48002004623413      1.55532002449036      2.57081007957458
      8.15320968627930     11.75162982940674      0.99318999052048
     13.74874973297119      6.05277013778687      3.94496989250183
      5.48319005966187      7.53710985183716     13.17280960083008
      6.89311981201172      0.48256000876427     10.00592041015625
     13.23836994171143      1.54879999160767     13.12637042999268
      9.82289028167725      1.68029999732971      3.04567003250122
      8.27597045898438      3.62574005126953     10.58448982238770
     11.40079021453857     11.11499023437500      0.23515999317169
     11.13216018676758     13.41658973693848      3.32718992233276
     14.78306961059570      9.07199001312256     14.82705974578857
      4.84437990188599      0.79781997203827      6.02627992630005
     14.08090019226074      9.73219013214111      8.65507030487061
      7.05365991592407      4.63104009628296      5.83001995086670
      2.63186001777649      9.32361030578613      7.28165006637573
      5.53119993209839      8.31735038757324      7.61455011367798
     12.38160991668701      1.33252000808716     10.97385978698730
     10.13947010040283     14.57758998870850      2.44063997268677
      0.26673001050949     10.27157020568848      7.17982006072998
      5.24093008041382      1.00005996227264      1.51358997821808
      9.14953041076660      0.19153000414371     13.60729026794434
     10.14426040649414      7.48591995239258     12.80488014221191
      8.27116966247559      7.41708993911743      9.12874984741211
     13.25084972381592      7.38876008987427     12.41489028930664
      2.19316005706787      7.88796997070312      0.53279000520706
      5.41916990280151     13.53460025787354      2.47618007659912
     10.25269031524658     12.83650016784668     14.64762973785400
      5.51941013336182      0.82064998149872      4.70653009414673
      8.65275001525879      3.83862996101379      0.98186999559402
      3.80542993545532      1.63912999629974     10.26222038269043
     10.07164955139160      9.28116035461426      8.86073017120361
      8.94019985198975      9.77140045166016     10.98583030700684
     10.25642967224121      5.97278022766113     13.83510971069336
     11.27548980712891      2.61730003356934      2.02830004692078
      6.66855001449585      4.72195005416870      3.85969996452332
     14.47696018218994      1.84848999977112      3.62230992317200
     14.17284965515137     14.55910968780518     10.15913009643555
      6.08060979843140     10.36563968658447     13.12345027923584
      8.94659996032715     12.46243953704834      9.91555976867676
      9.14169025421143      7.92308998107910      7.45916986465454
      3.74725008010864     12.20755958557129      0.17154000699520
      5.67120981216431      4.03040981292725     10.68500041961670
      6.54582023620605      1.93034994602203     13.87495994567871
      9.20765018463135      5.24575996398926      3.00002002716064
      1.04325997829437     14.32890987396240      7.20433998107910
     14.30025005340576      6.09959983825684      1.04716002941132
     11.53275966644287     13.41862964630127     13.03355026245117
      5.24893999099731     13.58905982971191      5.91899013519287
     13.94515037536621      7.15205001831055      2.83456993103027
      4.15955018997192     11.54028034210205     10.64964962005615
     12.30663967132568     11.25514984130859      2.89966988563538
      4.52585983276367      8.29860973358154      2.47397994995117
      2.59243011474609      1.86998999118805      6.67025995254517
      0.50572001934052      0.10757999867201     13.59245967864990
      3.59932994842529      2.78452992439270      3.71823000907898
      2.33049011230469      6.41134023666382      5.31412982940674
      9.79907035827637      2.91922998428345     10.92101955413818
      5.14938020706177      5.90680980682373     11.75714015960693
      7.52513980865479      6.29629993438721      5.29868984222412
      5.05918979644775      0.97294998168945     11.80191993713379
      4.24207019805908      2.79642009735107     13.02781009674072
      7.35917997360229      2.16498994827271      9.83740043640137
      2.99257993698120      3.97889995574951      0.72904998064041
      4.27479982376099      4.11447000503540     10.14194965362549
     11.36077022552490      6.65947008132935      1.20501995086670
     12.01243019104004     11.09780979156494      6.30976009368896
      6.95173978805542      7.92798995971680      1.16833996772766
     14.36645030975342     14.38039970397949      0.85701000690460
      5.53063011169434      7.61418008804321      9.72060966491699
      8.96469020843506     10.12007999420166      5.71721982955933
      1.45718002319336     12.79724025726318      1.63713002204895
     11.24536991119385      5.10340023040771      2.58558011054993
      6.51886987686157     11.21088027954102      6.37081003189087
      1.80104994773865      8.00646018981934      3.77431011199951
      9.48256015777588     13.32898044586182      4.14375019073486
      3.86509990692139     11.35289001464844      4.63015985488892
      7.87458992004395     12.09998035430908     14.02620983123779
      1.50778996944427     14.73104953765869      4.21773004531860
     13.65466022491455     10.72887039184570     11.64414978027344
      0.28979998826981      7.43285989761353     14.73974990844727
      2.04949998855591      1.45957005023956      1.27801001071930
      2.76708006858826      6.11896991729736     13.22632026672363
     12.28254985809326     11.54461956024170      9.05471038818359
      9.37300014495850     14.35603046417236      7.40114021301270
      1.49486994743347      6.64624023437500      2.51140999794006
     14.03254985809326      0.74269002676010      1.10802996158600
      2.29305005073547      3.35078001022339     12.57936000823975
     11.85550022125244     14.32096958160400      4.73004007339478
     13.22150993347168     10.92064952850342     13.85439014434814
      0.52149999141693     12.91961002349854      2.80765008926392
      3.02398991584778      9.45423030853271      5.72375011444092
     10.27822017669678      2.21990990638733      7.11667013168335
     12.22681999206543      0.46340999007225     14.04839992523193
     10.28989982604980      8.59027957916260      6.76174020767212
      6.16737985610962      6.82045984268188     14.41551017761230
      9.28359031677246      0.16280999779701     12.10797977447510
      4.38323020935059      8.59010982513428     13.10027980804443
     13.15616989135742      8.75716972351074     12.87833023071289
     13.68163013458252     14.60017013549805      5.48262977600098
      1.68639004230499      5.77635002136230      6.16261005401611
      8.55570983886719      8.36466979980469      2.84280991554260
      9.48031044006348     12.79740047454834      1.08239996433258
      7.13833999633789      2.75161004066467     13.02894973754883
      0.34621000289917     11.76471042633057      3.70899009704590
     12.91277980804443      3.13976001739502     10.04273986816406
      0.75454998016357     10.69369983673096     14.41658020019531
      8.58971977233887      4.53290987014771      7.14403009414673
     10.97636032104492      8.93984031677246     14.86098957061768
      5.03564977645874     13.76292037963867     10.83428001403809
      8.49612998962402      0.89086997509003      1.66600000858307
      8.73569011688232     13.63053989410400     10.77042007446289
